Cars = 1..200;
Options = 1..5;
Classes = 1..26;
sequenceMinCapacity = [0, 0, 0, 0, 0];
sequenceMaxCapacity = [1, 2, 1, 2, 1];
sequenceSize = [2, 3, 3, 5, 5];
numOrdered = [6, 1, 40, 15, 10, 1, 1, 8, 22, 1, 8, 6, 3, 6, 1, 1, 1, 6, 6, 18, 11, 3, 13, 2, 5, 5];
classHasOption = [|false, false,  true, false,  true
                  |false, false,  true,  true,  true
                  |false,  true, false, false, false
                  | true, false, false, false, false
                  | true, false, false,  true, false
                  | true, false, false, false,  true
                  |false,  true, false,  true,  true
                  | true,  true, false, false,  true
                  | true,  true, false, false, false
                  |false,  true,  true, false,  true
                  |false,  true, false, false,  true
                  |false,  true,  true, false, false
                  | true, false, false,  true,  true
                  |false,  true,  true,  true, false
                  | true,  true, false,  true,  true
                  | true,  true,  true,  true, false
                  | true, false,  true, false,  true
                  | true, false,  true, false, false
                  | true, false,  true,  true, false
                  |false,  true, false,  true, false
                  |false, false, false,  true, false
                  |false, false, false, false,  true
                  |false, false,  true, false, false
                  | true,  true,  true, false, false
                  |false, false,  true, false, false
                  | true,  true, false, false, false|];
optionOrdering = [5, 1, 3, 2, 4];
